136
100000
25006
42788
21686
1040
7044
28691
19932
35402
36595
23901
49710
4950
16336
32779
29176
2030
34683
6965
13
49932
17120
46749
32636
9792
31409
25897
24222
27624
31843
7038
14717
44346
6499
26182
42198
24006
6616
7185
16145
9767
22064
19717
28317
44374
38258
45853
21812
6156
12968
2809
7615
33048
194
38747
1365
47531
14536
17038
5432
35221
39183
29066
14771
2754
6853
361
33175
21093
23970
20224
10290
24099
12703
45870
30536
3597
23729
135
21208
33584
8068
4463
24737
26405
36399
26946
32046
15064
44241
1882
18490
3097
6773
26124
20840
17155
20127
2617
23941
15062
13535
49106
7799
43854
46902
28967
36627
7196
29934
14792
20838
39366
13812
15205
13617
22493
3638
48078
15899
24084
24196
42390
7397
25978
13874
34749
42678
4539
8144
20079
33835
27960
19433
1743
29272
32608
